(declare-const delta_tmp Int)
(declare-const delta_s Int)
(declare-const delta_tmp___0 Int)
(assert (exists
         ((|tmp___0'?1| Int) (|tmp'?2| Int) (|s'?3| Int) (havoc?4 Int)
            (phi_s?5 Int) (havoc?6 Int) (tmp?7 Int) (s?8 Int) (tmp___0?9 Int))
         (and (or (and (= s?8 0) (= s?8 0) (<= (- havoc?6) 0)
                         (or (< havoc?6 0) (< 0 havoc?6))
                         (or (and (or (< s?8 0) (< (- s?8) 0))
                                    (= (+ (- phi_s?5) s?8 1) 0))
                               (and (<= (- s?8) 0) (<= s?8 0)
                                      (= (+ (- phi_s?5) s?8) 0)))
                         (<= (- havoc?4) 0) (= havoc?4 0))
                    (and (= s?8 0) (= s?8 0) (<= (- havoc?6) 0)
                           (or (< havoc?6 0) (< 0 havoc?6))
                           (or (and (or (< s?8 0) (< (- s?8) 0))
                                      (= (+ (- phi_s?5) s?8 1) 0))
                                 (and (<= (- s?8) 0) (<= s?8 0)
                                        (= (+ (- phi_s?5) s?8) 0)))
                           (<= (- havoc?4) 0)
                           (or (< havoc?4 0) (< 0 havoc?4)) (= phi_s?5 0)))
                (= (+ |tmp___0'?1| (- havoc?6)) 0)
                (= (+ |tmp'?2| (- havoc?4)) 0) (= (+ |s'?3| (- phi_s?5)) 0)
                (= delta_s (+ |s'?3| (- s?8)))
                (= delta_tmp (+ |tmp'?2| (- tmp?7)))
                (= delta_tmp___0 (+ |tmp___0'?1| (- tmp___0?9))))))
(check-sat)
